<number of tasks>
50

<cycle time>
1000

<order strength>
0.598


<task times>
1 366
2 416
3 540
4 533
5 440
6 539
7 452
8 591
9 536
10 551
11 282
12 442
13 489
14 600
15 430
16 695
17 615
18 453
19 730
20 253
21 526
22 702
23 401
24 599
25 759
26 305
27 324
28 435
29 699
30 346
31 597
32 617
33 431
34 546
35 283
36 526
37 534
38 532
39 609
40 546
41 453
42 655
43 589
44 612
45 525
46 748
47 295
48 434
49 279
50 402

<precedence relations>
1,5
2,6
2,7
2,8
3,7
3,8
4,7
4,8
5,11
6,9
7,10
7,11
7,12
7,13
8,11
8,12
8,13
9,15
10,17
11,14
11,16
11,18
11,19
12,18
12,19
13,18
13,19
14,20
15,21
16,22
17,23
18,23
18,24
19,23
19,24
20,26
21,25
22,27
23,26
23,27
23,28
23,29
24,26
24,27
24,28
24,29
25,30
26,32
26,34
27,32
27,33
27,34
28,31
28,32
28,33
28,34
29,32
29,33
29,34
30,36
31,37
32,35
32,50
33,38
33,39
34,38
34,39
35,40
36,42
37,41
38,45
38,47
39,42
39,43
39,44
39,45
40,46
41,47
42,47
43,47
44,47
46,48
47,49
47,50

<end>
